
===== New CPLEX run =====
Instance: /home/yorig/tuner/mpils-tests/instances/miplib/easy/supportcase33.mps
Config: /scratch/yorig/mpils-results-grid-seconds-5-watchdog-mip-start/easy/8proc/seed-4/10_supportcase33_seed-4_20260504_032501/iterated_local_search/run_3_worker_7/ils_config_11418899900157924282.prm
========================

Selected objective sense:  MINIMIZE
Selected objective  name:  obj
Selected RHS        name:  rhs
Selected bound      name:  bnd
Wall watchdog: enabled factor=1 grace=1 limit=6 seconds
Version identifier: 22.1.2.0 | 2024-11-26 | 0edbb82fd
CPXPARAM_Threads                                 8
CPXPARAM_Parallel                                1
CPXPARAM_MIP_Cuts_Cliques                        2
CPXPARAM_MIP_Cuts_Covers                         1
CPXPARAM_MIP_Strategy_Order                      0
CPXPARAM_MIP_Strategy_SubAlgorithm               3
CPXPARAM_MIP_Strategy_VariableSelect             1
CPXPARAM_MIP_Cuts_FlowCovers                     2
CPXPARAM_MIP_Strategy_Probe                      3
CPXPARAM_MIP_Cuts_GUBCovers                      -1
CPXPARAM_MIP_Limits_GomoryCand                   50
CPXPARAM_MIP_Cuts_Gomory                         -1
CPXPARAM_MIP_Cuts_PathCut                        2
CPXPARAM_MIP_Cuts_Disjunctive                    -1
CPXPARAM_Emphasis_MIP                            3
CPXPARAM_TimeLimit                               5
Found incumbent of value 0.000000 after 0.00 sec. (2.20 ticks)
Tried aggregator 2 times.
MIP Presolve eliminated 17556 rows and 13423 columns.
MIP Presolve modified 14568 coefficients.
Aggregator did 11 substitutions.
Reduced MIP has 2922 rows, 6763 columns, and 53605 nonzeros.
Reduced MIP has 6683 binaries, 80 generals, 0 SOSs, and 0 indicators.
Presolve time = 0.09 sec. (158.17 ticks)
Probing fixed 667 vars, tightened 0 bounds.
Probing changed sense of 39 constraints.
Probing time = 0.18 sec. (255.87 ticks)
Tried aggregator 2 times.
Detecting symmetries...
MIP Presolve eliminated 639 rows and 667 columns.
MIP Presolve modified 197 coefficients.
Aggregator did 7 substitutions.
Reduced MIP has 2276 rows, 6089 columns, and 46722 nonzeros.
Reduced MIP has 6009 binaries, 80 generals, 0 SOSs, and 0 indicators.
Presolve time = 0.03 sec. (37.79 ticks)
Probing fixed 19 vars, tightened 0 bounds.
Probing time = 0.17 sec. (252.85 ticks)
Cover probing fixed 0 vars, tightened 1 bounds.

        Nodes                                         Cuts/
   Node  Left     Objective  IInf  Best Integer    Best Bound    ItCnt     Gap

      0     1  -1.00000e+37     0        0.0000    -1075.0000        0     --- 

Clique cuts applied:  0
Cover cuts applied:  0
Flow cuts applied:  0
Flow path cuts applied:  0

Root node processing (before b&c):
  Real time             =    5.00 sec. (7243.68 ticks)
Parallel b&c, 8 threads:
  Real time             =    0.00 sec. (0.00 ticks)
  Sync time (average)   =    0.00 sec.
  Wait time (average)   =    0.00 sec.
                          ------------
Total (root+branch&cut) =    5.00 sec. (7243.68 ticks)
Gap: 1.075e+15%
Upper bound: 0
Lower bound: -1075
Termination status: Normal
End of CPLEX run. Time: 5.00389 seconds

===== New CPLEX run =====
Instance: /home/yorig/tuner/mpils-tests/instances/miplib/easy/supportcase33.mps
Config: /scratch/yorig/mpils-results-grid-seconds-5-watchdog-mip-start/easy/8proc/seed-4/10_supportcase33_seed-4_20260504_032501/iterated_local_search/run_3_worker_7/ils_config_13793573612677364086.prm
========================

Selected objective sense:  MINIMIZE
Selected objective  name:  obj
Selected RHS        name:  rhs
Selected bound      name:  bnd
Wall watchdog: enabled factor=1 grace=1 limit=6 seconds
Version identifier: 22.1.2.0 | 2024-11-26 | 0edbb82fd
CPXPARAM_Threads                                 8
CPXPARAM_Parallel                                1
CPXPARAM_MIP_Cuts_Cliques                        2
CPXPARAM_MIP_Cuts_Covers                         1
CPXPARAM_MIP_Strategy_Order                      0
CPXPARAM_MIP_Strategy_SubAlgorithm               3
CPXPARAM_MIP_Strategy_VariableSelect             1
CPXPARAM_MIP_Cuts_FlowCovers                     2
CPXPARAM_MIP_Strategy_Probe                      3
CPXPARAM_MIP_Cuts_GUBCovers                      -1
CPXPARAM_MIP_Limits_GomoryCand                   50
CPXPARAM_MIP_Cuts_Gomory                         -1
CPXPARAM_MIP_Cuts_PathCut                        2
CPXPARAM_MIP_Cuts_Disjunctive                    -1
CPXPARAM_Emphasis_MIP                            5
CPXPARAM_TimeLimit                               5
Found incumbent of value 0.000000 after 0.00 sec. (2.20 ticks)
Tried aggregator 2 times.
MIP Presolve eliminated 17556 rows and 13423 columns.
MIP Presolve modified 14568 coefficients.
Aggregator did 11 substitutions.
Reduced MIP has 2922 rows, 6763 columns, and 53605 nonzeros.
Reduced MIP has 6683 binaries, 80 generals, 0 SOSs, and 0 indicators.
Presolve time = 0.09 sec. (158.17 ticks)
Probing fixed 667 vars, tightened 0 bounds.
Probing changed sense of 39 constraints.
Probing time = 0.17 sec. (255.87 ticks)
Tried aggregator 2 times.
Detecting symmetries...
MIP Presolve eliminated 639 rows and 667 columns.
MIP Presolve modified 197 coefficients.
Aggregator did 7 substitutions.
Reduced MIP has 2276 rows, 6089 columns, and 46722 nonzeros.
Reduced MIP has 6009 binaries, 80 generals, 0 SOSs, and 0 indicators.
Presolve time = 0.03 sec. (37.79 ticks)
Probing fixed 19 vars, tightened 0 bounds.
Probing time = 0.17 sec. (252.85 ticks)
Cover probing fixed 0 vars, tightened 1 bounds.

        Nodes                                         Cuts/
   Node  Left     Objective  IInf  Best Integer    Best Bound    ItCnt     Gap

      0     1  -1.00000e+37     0        0.0000    -1075.0000        0     --- 

Clique cuts applied:  0
Cover cuts applied:  0
Flow cuts applied:  0
Flow path cuts applied:  0

Root node processing (before b&c):
  Real time             =    5.00 sec. (7257.71 ticks)
Parallel b&c, 8 threads:
  Real time             =    0.00 sec. (0.00 ticks)
  Sync time (average)   =    0.00 sec.
  Wait time (average)   =    0.00 sec.
                          ------------
Total (root+branch&cut) =    5.00 sec. (7257.71 ticks)
Gap: 1.075e+15%
Upper bound: 0
Lower bound: -1075
Termination status: Normal
End of CPLEX run. Time: 5.00479 seconds

===== New CPLEX run =====
Instance: /home/yorig/tuner/mpils-tests/instances/miplib/easy/supportcase33.mps
Config: /scratch/yorig/mpils-results-grid-seconds-5-watchdog-mip-start/easy/8proc/seed-4/10_supportcase33_seed-4_20260504_032501/iterated_local_search/run_3_worker_7/ils_config_9863801997970884287.prm
========================

Selected objective sense:  MINIMIZE
Selected objective  name:  obj
Selected RHS        name:  rhs
Selected bound      name:  bnd
Wall watchdog: enabled factor=1 grace=1 limit=6 seconds
Version identifier: 22.1.2.0 | 2024-11-26 | 0edbb82fd
CPXPARAM_Threads                                 8
CPXPARAM_Parallel                                1
CPXPARAM_MIP_Cuts_Covers                         1
CPXPARAM_MIP_Strategy_Order                      0
CPXPARAM_MIP_Strategy_SubAlgorithm               3
CPXPARAM_MIP_Strategy_VariableSelect             1
CPXPARAM_MIP_Cuts_FlowCovers                     2
CPXPARAM_MIP_Strategy_Probe                      3
CPXPARAM_MIP_Cuts_GUBCovers                      -1
CPXPARAM_MIP_Limits_GomoryCand                   50
CPXPARAM_MIP_Cuts_Gomory                         -1
CPXPARAM_MIP_Cuts_PathCut                        2
CPXPARAM_MIP_Cuts_Disjunctive                    -1
CPXPARAM_Emphasis_MIP                            3
CPXPARAM_TimeLimit                               5
Found incumbent of value 0.000000 after 0.00 sec. (2.20 ticks)
Tried aggregator 2 times.
MIP Presolve eliminated 17556 rows and 13423 columns.
MIP Presolve modified 14568 coefficients.
Aggregator did 11 substitutions.
Reduced MIP has 2922 rows, 6763 columns, and 53605 nonzeros.
Reduced MIP has 6683 binaries, 80 generals, 0 SOSs, and 0 indicators.
Presolve time = 0.09 sec. (158.17 ticks)
Probing fixed 667 vars, tightened 0 bounds.
Probing changed sense of 39 constraints.
Probing time = 0.17 sec. (255.87 ticks)
Tried aggregator 2 times.
Detecting symmetries...
MIP Presolve eliminated 639 rows and 667 columns.
MIP Presolve modified 197 coefficients.
Aggregator did 7 substitutions.
Reduced MIP has 2276 rows, 6089 columns, and 46722 nonzeros.
Reduced MIP has 6009 binaries, 80 generals, 0 SOSs, and 0 indicators.
Presolve time = 0.03 sec. (37.79 ticks)
Probing fixed 19 vars, tightened 0 bounds.
Probing time = 0.17 sec. (252.85 ticks)
Cover probing fixed 0 vars, tightened 1 bounds.

        Nodes                                         Cuts/
   Node  Left     Objective  IInf  Best Integer    Best Bound    ItCnt     Gap

      0     1  -1.00000e+37     0        0.0000    -1075.0000        0     --- 

Cover cuts applied:  0
Flow cuts applied:  0
Flow path cuts applied:  0

Root node processing (before b&c):
  Real time             =    5.01 sec. (7251.93 ticks)
Parallel b&c, 8 threads:
  Real time             =    0.00 sec. (0.00 ticks)
  Sync time (average)   =    0.00 sec.
  Wait time (average)   =    0.00 sec.
                          ------------
Total (root+branch&cut) =    5.01 sec. (7251.93 ticks)
Gap: 1.075e+15%
Upper bound: 0
Lower bound: -1075
Termination status: Normal
End of CPLEX run. Time: 5.00937 seconds

===== New CPLEX run =====
Instance: /home/yorig/tuner/mpils-tests/instances/miplib/easy/supportcase33.mps
Config: /scratch/yorig/mpils-results-grid-seconds-5-watchdog-mip-start/easy/8proc/seed-4/10_supportcase33_seed-4_20260504_032501/iterated_local_search/run_3_worker_7/ils_config_16889071741694800258.prm
========================

Selected objective sense:  MINIMIZE
Selected objective  name:  obj
Selected RHS        name:  rhs
Selected bound      name:  bnd
Wall watchdog: enabled factor=1 grace=1 limit=6 seconds
Version identifier: 22.1.2.0 | 2024-11-26 | 0edbb82fd
CPXPARAM_Threads                                 8
CPXPARAM_Parallel                                1
CPXPARAM_MIP_Cuts_Cliques                        2
CPXPARAM_MIP_Cuts_Covers                         1
CPXPARAM_MIP_Strategy_Order                      0
CPXPARAM_MIP_Strategy_SubAlgorithm               3
CPXPARAM_MIP_Strategy_VariableSelect             1
CPXPARAM_MIP_Cuts_FlowCovers                     -1
CPXPARAM_MIP_Strategy_Probe                      3
CPXPARAM_MIP_Cuts_GUBCovers                      -1
CPXPARAM_MIP_Limits_GomoryCand                   50
CPXPARAM_MIP_Cuts_Gomory                         -1
CPXPARAM_MIP_Cuts_PathCut                        2
CPXPARAM_MIP_Cuts_Disjunctive                    -1
CPXPARAM_Emphasis_MIP                            3
CPXPARAM_TimeLimit                               5
Found incumbent of value 0.000000 after 0.00 sec. (2.20 ticks)
Tried aggregator 2 times.
MIP Presolve eliminated 17556 rows and 13423 columns.
MIP Presolve modified 14568 coefficients.
Aggregator did 11 substitutions.
Reduced MIP has 2922 rows, 6763 columns, and 53605 nonzeros.
Reduced MIP has 6683 binaries, 80 generals, 0 SOSs, and 0 indicators.
Presolve time = 0.09 sec. (158.17 ticks)
Probing fixed 667 vars, tightened 0 bounds.
Probing changed sense of 39 constraints.
Probing time = 0.17 sec. (255.87 ticks)
Tried aggregator 2 times.
Detecting symmetries...
MIP Presolve eliminated 639 rows and 667 columns.
MIP Presolve modified 197 coefficients.
Aggregator did 7 substitutions.
Reduced MIP has 2276 rows, 6089 columns, and 46722 nonzeros.
Reduced MIP has 6009 binaries, 80 generals, 0 SOSs, and 0 indicators.
Presolve time = 0.03 sec. (37.79 ticks)
Probing fixed 19 vars, tightened 0 bounds.
Probing time = 0.17 sec. (252.85 ticks)
Cover probing fixed 0 vars, tightened 1 bounds.

        Nodes                                         Cuts/
   Node  Left     Objective  IInf  Best Integer    Best Bound    ItCnt     Gap

      0     1  -1.00000e+37     0        0.0000    -1075.0000        0     --- 

Clique cuts applied:  0
Cover cuts applied:  0
Flow path cuts applied:  0

Root node processing (before b&c):
  Real time             =    5.00 sec. (7273.00 ticks)
Parallel b&c, 8 threads:
  Real time             =    0.00 sec. (0.00 ticks)
  Sync time (average)   =    0.00 sec.
  Wait time (average)   =    0.00 sec.
                          ------------
Total (root+branch&cut) =    5.00 sec. (7273.00 ticks)
Gap: 1.075e+15%
Upper bound: 0
Lower bound: -1075
Termination status: Normal
End of CPLEX run. Time: 5.0039 seconds

===== New CPLEX run =====
Instance: /home/yorig/tuner/mpils-tests/instances/miplib/easy/supportcase33.mps
Config: /scratch/yorig/mpils-results-grid-seconds-5-watchdog-mip-start/easy/8proc/seed-4/10_supportcase33_seed-4_20260504_032501/iterated_local_search/run_3_worker_7/ils_config_8425017597954216575.prm
========================

Selected objective sense:  MINIMIZE
Selected objective  name:  obj
Selected RHS        name:  rhs
Selected bound      name:  bnd
Wall watchdog: enabled factor=1 grace=1 limit=6 seconds
Version identifier: 22.1.2.0 | 2024-11-26 | 0edbb82fd
CPXPARAM_Threads                                 8
CPXPARAM_Parallel                                1
CPXPARAM_MIP_Cuts_Cliques                        2
CPXPARAM_MIP_Cuts_Covers                         1
CPXPARAM_MIP_Strategy_Order                      0
CPXPARAM_MIP_Strategy_SubAlgorithm               3
CPXPARAM_MIP_Strategy_VariableSelect             1
CPXPARAM_MIP_Cuts_FlowCovers                     2
CPXPARAM_MIP_Cuts_Implied                        1
CPXPARAM_MIP_Strategy_Probe                      3
CPXPARAM_MIP_Cuts_GUBCovers                      -1
CPXPARAM_MIP_Limits_GomoryCand                   50
CPXPARAM_MIP_Cuts_Gomory                         -1
CPXPARAM_MIP_Cuts_PathCut                        2
CPXPARAM_MIP_Cuts_Disjunctive                    -1
CPXPARAM_Emphasis_MIP                            3
CPXPARAM_TimeLimit                               5
Found incumbent of value 0.000000 after 0.00 sec. (2.20 ticks)
Tried aggregator 2 times.
MIP Presolve eliminated 17556 rows and 13423 columns.
MIP Presolve modified 14568 coefficients.
Aggregator did 11 substitutions.
Reduced MIP has 2922 rows, 6763 columns, and 53605 nonzeros.
Reduced MIP has 6683 binaries, 80 generals, 0 SOSs, and 0 indicators.
Presolve time = 0.09 sec. (158.17 ticks)
Probing fixed 667 vars, tightened 0 bounds.
Probing changed sense of 39 constraints.
Probing time = 0.17 sec. (255.87 ticks)
Tried aggregator 2 times.
Detecting symmetries...
MIP Presolve eliminated 639 rows and 667 columns.
MIP Presolve modified 197 coefficients.
Aggregator did 7 substitutions.
Reduced MIP has 2276 rows, 6089 columns, and 46722 nonzeros.
Reduced MIP has 6009 binaries, 80 generals, 0 SOSs, and 0 indicators.
Presolve time = 0.03 sec. (37.79 ticks)
Probing fixed 19 vars, tightened 0 bounds.
Probing time = 0.17 sec. (252.85 ticks)
Cover probing fixed 0 vars, tightened 1 bounds.

        Nodes                                         Cuts/
   Node  Left     Objective  IInf  Best Integer    Best Bound    ItCnt     Gap

      0     1  -1.00000e+37     0        0.0000    -1075.0000        0     --- 

Clique cuts applied:  0
Cover cuts applied:  0
Implied bound cuts applied:  0
Flow cuts applied:  0
Flow path cuts applied:  0

Root node processing (before b&c):
  Real time             =    5.00 sec. (7251.93 ticks)
Parallel b&c, 8 threads:
  Real time             =    0.00 sec. (0.00 ticks)
  Sync time (average)   =    0.00 sec.
  Wait time (average)   =    0.00 sec.
                          ------------
Total (root+branch&cut) =    5.00 sec. (7251.93 ticks)
Gap: 1.075e+15%
Upper bound: 0
Lower bound: -1075
Termination status: Normal
End of CPLEX run. Time: 5.00471 seconds

===== New CPLEX run =====
Instance: /home/yorig/tuner/mpils-tests/instances/miplib/easy/supportcase33.mps
Config: /scratch/yorig/mpils-results-grid-seconds-5-watchdog-mip-start/easy/8proc/seed-4/10_supportcase33_seed-4_20260504_032501/iterated_local_search/run_3_worker_7/ils_config_13375199433104879313.prm
========================

Selected objective sense:  MINIMIZE
Selected objective  name:  obj
Selected RHS        name:  rhs
Selected bound      name:  bnd
Wall watchdog: enabled factor=1 grace=1 limit=6 seconds
Version identifier: 22.1.2.0 | 2024-11-26 | 0edbb82fd
CPXPARAM_Threads                                 8
CPXPARAM_Parallel                                1
CPXPARAM_MIP_Cuts_Cliques                        2
CPXPARAM_MIP_Cuts_Covers                         1
CPXPARAM_MIP_Strategy_Order                      0
CPXPARAM_MIP_Strategy_SubAlgorithm               3
CPXPARAM_MIP_Strategy_VariableSelect             1
CPXPARAM_MIP_Cuts_FlowCovers                     2
CPXPARAM_MIP_Strategy_Probe                      3
CPXPARAM_MIP_Cuts_GUBCovers                      2
CPXPARAM_MIP_Limits_GomoryCand                   50
CPXPARAM_MIP_Cuts_Gomory                         -1
CPXPARAM_MIP_Cuts_PathCut                        2
CPXPARAM_MIP_Cuts_Disjunctive                    -1
CPXPARAM_Emphasis_MIP                            3
CPXPARAM_TimeLimit                               5
Found incumbent of value 0.000000 after 0.00 sec. (2.20 ticks)
Tried aggregator 2 times.
MIP Presolve eliminated 17556 rows and 13423 columns.
MIP Presolve modified 14568 coefficients.
Aggregator did 11 substitutions.
Reduced MIP has 2922 rows, 6763 columns, and 53605 nonzeros.
Reduced MIP has 6683 binaries, 80 generals, 0 SOSs, and 0 indicators.
Presolve time = 0.09 sec. (158.17 ticks)
Probing fixed 667 vars, tightened 0 bounds.
Probing changed sense of 39 constraints.
Probing time = 0.17 sec. (255.87 ticks)
Tried aggregator 2 times.
Detecting symmetries...
MIP Presolve eliminated 639 rows and 667 columns.
MIP Presolve modified 197 coefficients.
Aggregator did 7 substitutions.
Reduced MIP has 2276 rows, 6089 columns, and 46722 nonzeros.
Reduced MIP has 6009 binaries, 80 generals, 0 SOSs, and 0 indicators.
Presolve time = 0.03 sec. (37.79 ticks)
Probing fixed 19 vars, tightened 0 bounds.
Probing time = 0.17 sec. (252.85 ticks)
Cover probing fixed 0 vars, tightened 1 bounds.

        Nodes                                         Cuts/
   Node  Left     Objective  IInf  Best Integer    Best Bound    ItCnt     Gap

      0     1  -1.00000e+37     0        0.0000    -1075.0000        0     --- 

GUB cover cuts applied:  0
Clique cuts applied:  0
Cover cuts applied:  0
Flow cuts applied:  0
Flow path cuts applied:  0

Root node processing (before b&c):
  Real time             =    5.00 sec. (7251.93 ticks)
Parallel b&c, 8 threads:
  Real time             =    0.00 sec. (0.00 ticks)
  Sync time (average)   =    0.00 sec.
  Wait time (average)   =    0.00 sec.
                          ------------
Total (root+branch&cut) =    5.00 sec. (7251.93 ticks)
Gap: 1.075e+15%
Upper bound: 0
Lower bound: -1075
Termination status: Normal
End of CPLEX run. Time: 5.00541 seconds

===== New CPLEX run =====
Instance: /home/yorig/tuner/mpils-tests/instances/miplib/easy/supportcase33.mps
Config: /scratch/yorig/mpils-results-grid-seconds-5-watchdog-mip-start/easy/8proc/seed-4/10_supportcase33_seed-4_20260504_032501/iterated_local_search/run_3_worker_7/ils_config_9126396135674500104.prm
========================

Selected objective sense:  MINIMIZE
Selected objective  name:  obj
Selected RHS        name:  rhs
Selected bound      name:  bnd
Wall watchdog: enabled factor=1 grace=1 limit=6 seconds
Version identifier: 22.1.2.0 | 2024-11-26 | 0edbb82fd
CPXPARAM_Threads                                 8
CPXPARAM_Parallel                                1
CPXPARAM_MIP_Cuts_Cliques                        2
CPXPARAM_MIP_Cuts_Covers                         1
CPXPARAM_MIP_Strategy_Order                      0
CPXPARAM_MIP_Strategy_SubAlgorithm               3
CPXPARAM_MIP_Strategy_VariableSelect             1
CPXPARAM_MIP_Cuts_FlowCovers                     2
CPXPARAM_MIP_Strategy_Probe                      3
CPXPARAM_MIP_Cuts_GUBCovers                      -1
CPXPARAM_MIP_Limits_GomoryCand                   50
CPXPARAM_MIP_Cuts_Gomory                         -1
CPXPARAM_MIP_Cuts_PathCut                        -1
CPXPARAM_MIP_Cuts_Disjunctive                    -1
CPXPARAM_Emphasis_MIP                            3
CPXPARAM_TimeLimit                               5
Found incumbent of value 0.000000 after 0.00 sec. (2.20 ticks)
Tried aggregator 2 times.
MIP Presolve eliminated 17556 rows and 13423 columns.
MIP Presolve modified 14568 coefficients.
Aggregator did 11 substitutions.
Reduced MIP has 2922 rows, 6763 columns, and 53605 nonzeros.
Reduced MIP has 6683 binaries, 80 generals, 0 SOSs, and 0 indicators.
Presolve time = 0.09 sec. (158.17 ticks)
Probing fixed 667 vars, tightened 0 bounds.
Probing changed sense of 39 constraints.
Probing time = 0.17 sec. (255.87 ticks)
Tried aggregator 2 times.
Detecting symmetries...
MIP Presolve eliminated 639 rows and 667 columns.
MIP Presolve modified 197 coefficients.
Aggregator did 7 substitutions.
Reduced MIP has 2276 rows, 6089 columns, and 46722 nonzeros.
Reduced MIP has 6009 binaries, 80 generals, 0 SOSs, and 0 indicators.
Presolve time = 0.03 sec. (37.79 ticks)
Probing fixed 19 vars, tightened 0 bounds.
Probing time = 0.17 sec. (252.85 ticks)
Cover probing fixed 0 vars, tightened 1 bounds.

        Nodes                                         Cuts/
   Node  Left     Objective  IInf  Best Integer    Best Bound    ItCnt     Gap

      0     1  -1.00000e+37     0        0.0000    -1075.0000        0     --- 

Clique cuts applied:  0
Cover cuts applied:  0
Flow cuts applied:  0

Root node processing (before b&c):
  Real time             =    5.00 sec. (7230.59 ticks)
Parallel b&c, 8 threads:
  Real time             =    0.00 sec. (0.00 ticks)
  Sync time (average)   =    0.00 sec.
  Wait time (average)   =    0.00 sec.
                          ------------
Total (root+branch&cut) =    5.00 sec. (7230.59 ticks)
Gap: 1.075e+15%
Upper bound: 0
Lower bound: -1075
Termination status: Normal
End of CPLEX run. Time: 5.00438 seconds

===== New CPLEX run =====
Instance: /home/yorig/tuner/mpils-tests/instances/miplib/easy/supportcase33.mps
Config: /scratch/yorig/mpils-results-grid-seconds-5-watchdog-mip-start/easy/8proc/seed-4/10_supportcase33_seed-4_20260504_032501/iterated_local_search/run_3_worker_7/ils_config_6978123417033823440.prm
========================

Selected objective sense:  MINIMIZE
Selected objective  name:  obj
Selected RHS        name:  rhs
Selected bound      name:  bnd
Wall watchdog: enabled factor=1 grace=1 limit=6 seconds
Version identifier: 22.1.2.0 | 2024-11-26 | 0edbb82fd
CPXPARAM_Threads                                 8
CPXPARAM_Parallel                                1
CPXPARAM_MIP_Cuts_Cliques                        2
CPXPARAM_MIP_Cuts_Covers                         -1
CPXPARAM_MIP_Strategy_Order                      0
CPXPARAM_MIP_Strategy_SubAlgorithm               3
CPXPARAM_MIP_Strategy_VariableSelect             1
CPXPARAM_MIP_Cuts_FlowCovers                     2
CPXPARAM_MIP_Strategy_Probe                      3
CPXPARAM_MIP_Cuts_GUBCovers                      -1
CPXPARAM_MIP_Limits_GomoryCand                   50
CPXPARAM_MIP_Cuts_Gomory                         -1
CPXPARAM_MIP_Cuts_PathCut                        2
CPXPARAM_MIP_Cuts_Disjunctive                    -1
CPXPARAM_Emphasis_MIP                            3
CPXPARAM_TimeLimit                               5
Found incumbent of value 0.000000 after 0.00 sec. (2.20 ticks)
Tried aggregator 2 times.
MIP Presolve eliminated 17556 rows and 13423 columns.
MIP Presolve modified 14568 coefficients.
Aggregator did 11 substitutions.
Reduced MIP has 2922 rows, 6763 columns, and 53605 nonzeros.
Reduced MIP has 6683 binaries, 80 generals, 0 SOSs, and 0 indicators.
Presolve time = 0.09 sec. (158.17 ticks)
Probing fixed 667 vars, tightened 0 bounds.
Probing changed sense of 39 constraints.
Probing time = 0.17 sec. (255.87 ticks)
Tried aggregator 2 times.
Detecting symmetries...
MIP Presolve eliminated 639 rows and 667 columns.
MIP Presolve modified 197 coefficients.
Aggregator did 7 substitutions.
Reduced MIP has 2276 rows, 6089 columns, and 46722 nonzeros.
Reduced MIP has 6009 binaries, 80 generals, 0 SOSs, and 0 indicators.
Presolve time = 0.03 sec. (37.79 ticks)
Probing fixed 19 vars, tightened 0 bounds.
Probing time = 0.17 sec. (252.85 ticks)
Cover probing fixed 0 vars, tightened 1 bounds.

        Nodes                                         Cuts/
   Node  Left     Objective  IInf  Best Integer    Best Bound    ItCnt     Gap

      0     1  -1.00000e+37     0        0.0000    -1075.0000        0     --- 

Clique cuts applied:  0
Flow cuts applied:  0
Flow path cuts applied:  0

Root node processing (before b&c):
  Real time             =    5.00 sec. (7257.71 ticks)
Parallel b&c, 8 threads:
  Real time             =    0.00 sec. (0.00 ticks)
  Sync time (average)   =    0.00 sec.
  Wait time (average)   =    0.00 sec.
                          ------------
Total (root+branch&cut) =    5.00 sec. (7257.71 ticks)
Gap: 1.075e+15%
Upper bound: 0
Lower bound: -1075
Termination status: Normal
End of CPLEX run. Time: 5.00709 seconds

===== New CPLEX run =====
Instance: /home/yorig/tuner/mpils-tests/instances/miplib/easy/supportcase33.mps
Config: /scratch/yorig/mpils-results-grid-seconds-5-watchdog-mip-start/easy/8proc/seed-4/10_supportcase33_seed-4_20260504_032501/iterated_local_search/run_3_worker_7/ils_config_1571890391356131006.prm
========================

Selected objective sense:  MINIMIZE
Selected objective  name:  obj
Selected RHS        name:  rhs
Selected bound      name:  bnd
Wall watchdog: enabled factor=1 grace=1 limit=6 seconds
Version identifier: 22.1.2.0 | 2024-11-26 | 0edbb82fd
CPXPARAM_Threads                                 8
CPXPARAM_Parallel                                1
CPXPARAM_MIP_Cuts_Cliques                        2
CPXPARAM_MIP_Cuts_Covers                         1
CPXPARAM_MIP_Strategy_Order                      0
CPXPARAM_MIP_Strategy_VariableSelect             1
CPXPARAM_MIP_Cuts_FlowCovers                     2
CPXPARAM_MIP_Strategy_Probe                      3
CPXPARAM_MIP_Cuts_GUBCovers                      -1
CPXPARAM_MIP_Limits_GomoryCand                   50
CPXPARAM_MIP_Cuts_Gomory                         -1
CPXPARAM_MIP_Cuts_PathCut                        2
CPXPARAM_MIP_Cuts_Disjunctive                    -1
CPXPARAM_Emphasis_MIP                            3
CPXPARAM_TimeLimit                               5
Found incumbent of value 0.000000 after 0.00 sec. (2.20 ticks)
Tried aggregator 2 times.
MIP Presolve eliminated 17556 rows and 13423 columns.
MIP Presolve modified 14568 coefficients.
Aggregator did 11 substitutions.
Reduced MIP has 2922 rows, 6763 columns, and 53605 nonzeros.
Reduced MIP has 6683 binaries, 80 generals, 0 SOSs, and 0 indicators.
Presolve time = 0.09 sec. (158.17 ticks)
Probing fixed 667 vars, tightened 0 bounds.
Probing changed sense of 39 constraints.
Probing time = 0.17 sec. (255.87 ticks)
Tried aggregator 2 times.
Detecting symmetries...
MIP Presolve eliminated 639 rows and 667 columns.
MIP Presolve modified 197 coefficients.
Aggregator did 7 substitutions.
Reduced MIP has 2276 rows, 6089 columns, and 46722 nonzeros.
Reduced MIP has 6009 binaries, 80 generals, 0 SOSs, and 0 indicators.
Presolve time = 0.03 sec. (37.79 ticks)
Probing fixed 19 vars, tightened 0 bounds.
Probing time = 0.17 sec. (252.85 ticks)
Cover probing fixed 0 vars, tightened 1 bounds.

        Nodes                                         Cuts/
   Node  Left     Objective  IInf  Best Integer    Best Bound    ItCnt     Gap

      0     1  -1.00000e+37     0        0.0000    -1075.0000        0     --- 

Clique cuts applied:  0
Cover cuts applied:  0
Flow cuts applied:  0
Flow path cuts applied:  0

Root node processing (before b&c):
  Real time             =    5.00 sec. (7251.93 ticks)
Parallel b&c, 8 threads:
  Real time             =    0.00 sec. (0.00 ticks)
  Sync time (average)   =    0.00 sec.
  Wait time (average)   =    0.00 sec.
                          ------------
Total (root+branch&cut) =    5.00 sec. (7251.93 ticks)
Gap: 1.075e+15%
Upper bound: 0
Lower bound: -1075
Termination status: Normal
End of CPLEX run. Time: 5.00487 seconds

===== New CPLEX run =====
Instance: /home/yorig/tuner/mpils-tests/instances/miplib/easy/supportcase33.mps
Config: /scratch/yorig/mpils-results-grid-seconds-5-watchdog-mip-start/easy/8proc/seed-4/10_supportcase33_seed-4_20260504_032501/iterated_local_search/run_3_worker_7/ils_config_13523572738266847786.prm
========================

Selected objective sense:  MINIMIZE
Selected objective  name:  obj
Selected RHS        name:  rhs
Selected bound      name:  bnd
Wall watchdog: enabled factor=1 grace=1 limit=6 seconds
Version identifier: 22.1.2.0 | 2024-11-26 | 0edbb82fd
CPXPARAM_Threads                                 8
CPXPARAM_Parallel                                1
CPXPARAM_MIP_Cuts_Cliques                        2
CPXPARAM_MIP_Cuts_Covers                         1
CPXPARAM_MIP_Strategy_Order                      0
CPXPARAM_MIP_Strategy_SubAlgorithm               3
CPXPARAM_MIP_Strategy_VariableSelect             1
CPXPARAM_MIP_Cuts_FlowCovers                     2
CPXPARAM_MIP_Strategy_Probe                      3
CPXPARAM_MIP_Cuts_GUBCovers                      -1
CPXPARAM_MIP_Limits_GomoryCand                   50
CPXPARAM_MIP_Cuts_Gomory                         -1
CPXPARAM_MIP_Cuts_PathCut                        2
CPXPARAM_Emphasis_MIP                            3
CPXPARAM_TimeLimit                               5
Found incumbent of value 0.000000 after 0.00 sec. (2.20 ticks)
Tried aggregator 2 times.
MIP Presolve eliminated 17556 rows and 13423 columns.
MIP Presolve modified 14568 coefficients.
Aggregator did 11 substitutions.
Reduced MIP has 2922 rows, 6763 columns, and 53605 nonzeros.
Reduced MIP has 6683 binaries, 80 generals, 0 SOSs, and 0 indicators.
Presolve time = 0.09 sec. (158.17 ticks)
Probing fixed 667 vars, tightened 0 bounds.
Probing changed sense of 39 constraints.
Probing time = 0.17 sec. (255.87 ticks)
Tried aggregator 2 times.
Detecting symmetries...
MIP Presolve eliminated 639 rows and 667 columns.
MIP Presolve modified 197 coefficients.
Aggregator did 7 substitutions.
Reduced MIP has 2276 rows, 6089 columns, and 46722 nonzeros.
Reduced MIP has 6009 binaries, 80 generals, 0 SOSs, and 0 indicators.
Presolve time = 0.03 sec. (37.79 ticks)
Probing fixed 19 vars, tightened 0 bounds.
Probing time = 0.17 sec. (252.85 ticks)
Cover probing fixed 0 vars, tightened 1 bounds.

        Nodes                                         Cuts/
   Node  Left     Objective  IInf  Best Integer    Best Bound    ItCnt     Gap

      0     1  -1.00000e+37     0        0.0000    -1075.0000        0     --- 

Clique cuts applied:  0
Cover cuts applied:  0
Flow cuts applied:  0
Flow path cuts applied:  0

Root node processing (before b&c):
  Real time             =    5.00 sec. (7251.93 ticks)
Parallel b&c, 8 threads:
  Real time             =    0.00 sec. (0.00 ticks)
  Sync time (average)   =    0.00 sec.
  Wait time (average)   =    0.00 sec.
                          ------------
Total (root+branch&cut) =    5.00 sec. (7251.93 ticks)
Gap: 1.075e+15%
Upper bound: 0
Lower bound: -1075
Termination status: Normal
End of CPLEX run. Time: 5.00442 seconds
